SAT
92 -42 64 95 -28 -97 -96 -47 -80 84 -16 74 56 -36 -86 -59 40 -87 81 8 7 -25 98 46 -58 70 78 -89 66 88 52 -79 32 -17 -60 -50 21 75 -61 -55 -48 33 -53 15 38 -35 -29 73 -85 76 -39 6 -24 -12 44 -51 68 -69 2 20 -63 71 14 10 18 -5 49 1 -57 9 31 -99 83 93 41 -91 62 -4 34 100 -65 43 -19 3 -45 82 11 -23 22 54 90 -72 -30 -37 77 -27 13 94 67 26 0
